1581
82 6 36 10 90 29 32 39 25 18 41 17 80 4 71 13 83 56 60 21 50 72 27 63 14 52 3 58 92 98 75 74 78 65 70 37 49 99 77 79 73 54 96 24 84 30 88 45 61 97 19 34 38 66 91 48 94 9 26 81 42 89 16 31 57 68 95 62 85 15 22 1 59 8 2 51 55 44 67 43 23 33 11 69 5 40 86 7 64 46 20 53 47 87 28 76 12 35 93 
